c nIsolatedPIs 0
c maxPI 32
p cnf 163 394
c gate 33 11 27 0
11 -33 0
27 -33 0
-11 -27 33 0
c gate 34 10 26 0
10 -34 0
26 -34 0
-10 -26 34 0
c gate 35 -7 -23 0
-7 -35 0
-23 -35 0
7 23 35 0
c gate 36 -8 -24 0
-8 -36 0
-24 -36 0
8 24 36 0
c gate 37 -35 -36 0
-35 -37 0
-36 -37 0
35 36 37 0
c gate 38 9 25 0
9 -38 0
25 -38 0
-9 -25 38 0
c gate 39 8 24 0
8 -39 0
24 -39 0
-8 -24 39 0
c gate 40 -38 -39 0
-38 -40 0
-39 -40 0
38 39 40 0
c gate 41 -37 40 0
-37 -41 0
40 -41 0
37 -40 41 0
c gate 42 -9 -25 0
-9 -42 0
-25 -42 0
9 25 42 0
c gate 43 -10 -26 0
-10 -43 0
-26 -43 0
10 26 43 0
c gate 44 -34 -43 0
-34 -44 0
-43 -44 0
34 43 44 0
c gate 45 -42 44 0
-42 -45 0
44 -45 0
42 -44 45 0
c gate 46 -41 45 0
-41 -46 0
45 -46 0
41 -45 46 0
c gate 47 -34 -46 0
-34 -47 0
-46 -47 0
34 46 47 0
c gate 48 -2 -18 0
-2 -48 0
-18 -48 0
2 18 48 0
c gate 49 1 17 0
1 -49 0
17 -49 0
-1 -17 49 0
c gate 50 -48 49 0
-48 -50 0
49 -50 0
48 -49 50 0
c gate 51 3 19 0
3 -51 0
19 -51 0
-3 -19 51 0
c gate 52 2 18 0
2 -52 0
18 -52 0
-2 -18 52 0
c gate 53 -51 -52 0
-51 -53 0
-52 -53 0
51 52 53 0
c gate 54 -50 53 0
-50 -54 0
53 -54 0
50 -53 54 0
c gate 55 -4 -20 0
-4 -55 0
-20 -55 0
4 20 55 0
c gate 56 -3 -19 0
-3 -56 0
-19 -56 0
3 19 56 0
c gate 57 -55 -56 0
-55 -57 0
-56 -57 0
55 56 57 0
c gate 58 -54 57 0
-54 -58 0
57 -58 0
54 -57 58 0
c gate 59 5 21 0
5 -59 0
21 -59 0
-5 -21 59 0
c gate 60 4 20 0
4 -60 0
20 -60 0
-4 -20 60 0
c gate 61 -59 -60 0
-59 -61 0
-60 -61 0
59 60 61 0
c gate 62 -58 61 0
-58 -62 0
61 -62 0
58 -61 62 0
c gate 63 -6 -22 0
-6 -63 0
-22 -63 0
6 22 63 0
c gate 64 -5 -21 0
-5 -64 0
-21 -64 0
5 21 64 0
c gate 65 -63 -64 0
-63 -65 0
-64 -65 0
63 64 65 0
c gate 66 -62 65 0
-62 -66 0
65 -66 0
62 -65 66 0
c gate 67 6 22 0
6 -67 0
22 -67 0
-6 -22 67 0
c gate 68 7 23 0
7 -68 0
23 -68 0
-7 -23 68 0
c gate 69 -67 -68 0
-67 -69 0
-68 -69 0
67 68 69 0
c gate 70 -66 69 0
-66 -70 0
69 -70 0
66 -69 70 0
c gate 71 40 46 0
40 -71 0
46 -71 0
-40 -46 71 0
c gate 72 70 71 0
70 -72 0
71 -72 0
-70 -71 72 0
c gate 73 -43 -72 0
-43 -73 0
-72 -73 0
43 72 73 0
c gate 74 -47 73 0
-47 -74 0
73 -74 0
47 -73 74 0
c gate 75 -33 -74 0
-33 -75 0
-74 -75 0
33 74 75 0
c gate 76 -11 -27 0
-11 -76 0
-27 -76 0
11 27 76 0
c gate 77 -12 -28 0
-12 -77 0
-28 -77 0
12 28 77 0
c gate 78 12 28 0
12 -78 0
28 -78 0
-12 -28 78 0
c gate 79 -77 -78 0
-77 -79 0
-78 -79 0
77 78 79 0
c gate 80 -76 79 0
-76 -80 0
79 -80 0
76 -79 80 0
c gate 81 -75 80 0
-75 -81 0
80 -81 0
75 -80 81 0
c gate 82 -13 -29 0
-13 -82 0
-29 -82 0
13 29 82 0
c gate 83 13 29 0
13 -83 0
29 -83 0
-13 -29 83 0
c gate 84 -82 -83 0
-82 -84 0
-83 -84 0
82 83 84 0
c gate 85 81 84 0
81 -85 0
84 -85 0
-81 -84 85 0
c gate 86 -16 -32 0
-16 -86 0
-32 -86 0
16 32 86 0
c gate 87 16 32 0
16 -87 0
32 -87 0
-16 -32 87 0
c gate 88 -86 -87 0
-86 -88 0
-87 -88 0
86 87 88 0
c gate 89 -14 -30 0
-14 -89 0
-30 -89 0
14 30 89 0
c gate 90 14 30 0
14 -90 0
30 -90 0
-14 -30 90 0
c gate 91 -89 -90 0
-89 -91 0
-90 -91 0
89 90 91 0
c gate 92 15 -31 0
15 -92 0
-31 -92 0
-15 31 92 0
c gate 93 -15 31 0
-15 -93 0
31 -93 0
15 -31 93 0
c gate 94 -92 -93 0
-92 -94 0
-93 -94 0
92 93 94 0
c gate 95 91 -94 0
91 -95 0
-94 -95 0
-91 94 95 0
c gate 96 88 95 0
88 -96 0
95 -96 0
-88 -95 96 0
c gate 97 85 -96 0
85 -97 0
-96 -97 0
-85 96 97 0
c gate 98 81 -84 0
81 -98 0
-84 -98 0
-81 84 98 0
c gate 99 -47 80 0
-47 -99 0
80 -99 0
47 -80 99 0
c gate 100 75 99 0
75 -100 0
99 -100 0
-75 -99 100 0
c gate 101 -98 -100 0
-98 -101 0
-100 -101 0
98 100 101 0
c gate 102 -97 101 0
-97 -102 0
101 -102 0
97 -101 102 0
c gate 103 -36 -39 0
-36 -103 0
-39 -103 0
36 39 103 0
c gate 104 -81 -103 0
-81 -104 0
-103 -104 0
81 103 104 0
c gate 105 -35 70 0
-35 -105 0
70 -105 0
35 -70 105 0
c gate 106 -81 -105 0
-81 -106 0
-105 -106 0
81 105 106 0
c gate 107 -104 -106 0
-104 -107 0
-106 -107 0
104 106 107 0
c gate 108 -102 107 0
-102 -108 0
107 -108 0
102 -107 108 0
c gate 109 -38 -42 0
-38 -109 0
-42 -109 0
38 42 109 0
c gate 110 -1 17 0
-1 -110 0
17 -110 0
1 -17 110 0
c gate 111 18 110 0
18 -111 0
110 -111 0
-18 -110 111 0
c gate 112 2 -111 0
2 -112 0
-111 -112 0
-2 111 112 0
c gate 113 -18 -110 0
-18 -113 0
-110 -113 0
18 110 113 0
c gate 114 3 -19 0
3 -114 0
-19 -114 0
-3 19 114 0
c gate 115 -113 -114 0
-113 -115 0
-114 -115 0
113 114 115 0
c gate 116 -112 115 0
-112 -116 0
115 -116 0
112 -115 116 0
c gate 117 -4 20 0
-4 -117 0
20 -117 0
4 -20 117 0
c gate 118 -3 19 0
-3 -118 0
19 -118 0
3 -19 118 0
c gate 119 -117 -118 0
-117 -119 0
-118 -119 0
117 118 119 0
c gate 120 -116 119 0
-116 -120 0
119 -120 0
116 -119 120 0
c gate 121 4 -20 0
4 -121 0
-20 -121 0
-4 20 121 0
c gate 122 5 -21 0
5 -122 0
-21 -122 0
-5 21 122 0
c gate 123 -121 -122 0
-121 -123 0
-122 -123 0
121 122 123 0
c gate 124 -120 123 0
-120 -124 0
123 -124 0
120 -123 124 0
c gate 125 -6 22 0
-6 -125 0
22 -125 0
6 -22 125 0
c gate 126 -5 21 0
-5 -126 0
21 -126 0
5 -21 126 0
c gate 127 -125 -126 0
-125 -127 0
-126 -127 0
125 126 127 0
c gate 128 -124 127 0
-124 -128 0
127 -128 0
124 -127 128 0
c gate 129 7 -23 0
7 -129 0
-23 -129 0
-7 23 129 0
c gate 130 6 -22 0
6 -130 0
-22 -130 0
-6 22 130 0
c gate 131 -129 -130 0
-129 -131 0
-130 -131 0
129 130 131 0
c gate 132 -128 131 0
-128 -132 0
131 -132 0
128 -131 132 0
c gate 133 -7 23 0
-7 -133 0
23 -133 0
7 -23 133 0
c gate 134 -103 -133 0
-103 -134 0
-133 -134 0
103 133 134 0
c gate 135 -132 134 0
-132 -135 0
134 -135 0
132 -134 135 0
c gate 136 -109 135 0
-109 -136 0
135 -136 0
109 -135 136 0
c gate 137 -44 136 0
-44 -137 0
136 -137 0
44 -136 137 0
c gate 138 -108 -135 0
-108 -138 0
-135 -138 0
108 135 138 0
c gate 139 -137 -138 0
-137 -139 0
-138 -139 0
137 138 139 0
c gate 140 -33 -76 0
-33 -140 0
-76 -140 0
33 76 140 0
c gate 141 137 140 0
137 -141 0
140 -141 0
-137 -140 141 0
c gate 142 -139 -141 0
-139 -142 0
-141 -142 0
139 141 142 0
c gate 143 -10 26 0
-10 -143 0
26 -143 0
10 -26 143 0
c gate 144 8 -24 0
8 -144 0
-24 -144 0
-8 24 144 0
c gate 145 -109 144 0
-109 -145 0
144 -145 0
109 -144 145 0
c gate 146 9 -25 0
9 -146 0
-25 -146 0
-9 25 146 0
c gate 147 -145 -146 0
-145 -147 0
-146 -147 0
145 146 147 0
c gate 148 -136 147 0
-136 -148 0
147 -148 0
136 -147 148 0
c gate 149 -143 -148 0
-143 -149 0
-148 -149 0
143 148 149 0
c gate 150 10 -26 0
10 -150 0
-26 -150 0
-10 26 150 0
c gate 151 -140 -150 0
-140 -151 0
-150 -151 0
140 150 151 0
c gate 152 -149 151 0
-149 -152 0
151 -152 0
149 -151 152 0
c gate 153 -142 -152 0
-142 -153 0
-152 -153 0
142 152 153 0
c gate 154 -79 -84 0
-79 -154 0
-84 -154 0
79 84 154 0
c gate 155 -91 94 0
-91 -155 0
94 -155 0
91 -94 155 0
c gate 156 -88 155 0
-88 -156 0
155 -156 0
88 -155 156 0
c gate 157 154 156 0
154 -157 0
156 -157 0
-154 -156 157 0
c gate 158 152 157 0
152 -158 0
157 -158 0
-152 -157 158 0
c gate 159 -153 -158 0
-153 -159 0
-158 -159 0
153 158 159 0
c gate 160 108 159 0
108 -160 0
159 -160 0
-108 -159 160 0
c gate 161 -106 -159 0
-106 -161 0
-159 -161 0
106 159 161 0
c gate 162 102 161 0
102 -162 0
161 -162 0
-102 -161 162 0
c gate 163 -160 -162 0
-160 -163 0
-162 -163 0
160 162 163 0
c PO
-163 0
